NAME : rcdp0501
TYPE : VRPSPDTW
DIMENSION : 6
VEHICLES : 3
CAPACITY : 200
EDGE_WEIGHT_TYPE : EXACT_2D
NODE_COORD_SECTION
1 40 50
2 18 80
3 50 35
4 15 10
5 10 20
6 56 37
PICKUP_AND_DELIVERY_SECTION
1 0 0 240 0 0 0
2 0 113 143 10 30 10
3 0 130 160 10 0 19
4 0 152 182 10 9 20
5 0 42 72 10 20 19
6 0 34 64 10 10 6
DEPOT_SECTION
1 
-1
